HUN,8,6,207
4,30,5,12,1,14,3,1,0,19,2,24
2,11,0,16,5,25,4,6,1,11,3,21
1,6,0,9,4,7,3,16,5,23,2,23
1,9,4,23,3,10,0,29,2,11,5,24
0,16,4,4,3,1,2,7,5,19,1,24
5,9,3,27,1,10,4,3,2,17,0,17
4,9,0,1,2,25,5,20,1,13,3,3
5,4,4,11,1,25,0,25,2,2,3,14
